\* BuyingBestsellers *\
Maximize
OBJ: x0 + x1 + x10 + x11 + x12 + x13 + x14 + x15 + x16 + x17 + x18 + x19 + x2
 + x20 + x21 + x22 + x23 + x24 + x25 + x26 + x27 + x28 + x29 + x3 + x30 + x31
 + x32 + x33 + x34 + x35 + x36 + x37 + x4 + x5 + x6 + x7 + x8 + x9
Subject To
_C1: 264 x0 + 288 x1 + 361 x10 + 381 x11 + 256 x12 + 392 x13 + 390 x14
 + 368 x15 + 176.666666667 x16 + 156.5 x17 + 146 x18 + 161.5 x19 + 317 x2
 + 211 x20 + 139 x21 + 385.5 x22 + 122.666666667 x23 + 153.333333333 x24
 + 192 x25 + 123 x26 + 156.666666667 x27 + 147 x28 + 103 x29 + 636 x3
 + 179 x30 + 132 x31 + 130.666666667 x32 + 135 x33 + 366 x34
 + 132.666666667 x35 + 149 x36 + 168 x37 + 383 x4 + 607 x5 + 607 x6 + 384 x7
 + 279 x8 + 312 x9 <= 4800
Binaries
x0
x1
x10
x11
x12
x13
x14
x15
x16
x17
x18
x19
x2
x20
x21
x22
x23
x24
x25
x26
x27
x28
x29
x3
x30
x31
x32
x33
x34
x35
x36
x37
x4
x5
x6
x7
x8
x9
End
